p cnf 26 59
a 17 15 0
e 1 2 3 4 5 6 7 8 9 10 11 12 13 14 16 18 19 20 21 22 23 24 25 26 0
3 1 0
3 -2 0
-1 2 -3 0
6 -4 0
6 -5 0
4 5 -6 0
-7 -3 0
-7 6 0
3 -6 7 0
-10 8 0
-10 -9 0
-8 9 10 0
11 -10 0
11 2 0
10 -2 -11 0
-13 -9 0
-13 12 0
9 -12 13 0
9 13 -14 0
-9 -13 -14 0
9 -13 14 0
-9 13 14 0
11 14 -15 0
-11 -14 -15 0
11 -14 15 0
-11 14 15 0
7 15 -16 0
-7 -15 -16 0
7 -15 16 0
-7 15 16 0
18 -17 0
18 10 0
17 -10 -18 0
19 16 0
19 18 0
-16 -18 -19 0
-21 20 0
-21 5 0
-20 -5 21 0
-22 19 0
-22 -21 0
-19 21 22 0
-4 12 -24 0
4 -12 -24 0
-4 -12 24 0
4 12 24 0
-23 -24 -25 0
23 24 -25 0
-23 24 25 0
23 -24 25 0
26 -22 0
26 25 0
22 -25 -26 0
-6 25 7 9 24 26 -14 0
-6 14 -5 -17 -16 0
9 17 1 -16 13 8 6 0
2 -14 -25 21 0
12 1 16 -22 -8 15 0
26 0
